&CONTROL
  calculation = "scf",
  pseudo_dir = "../../../pseudo",
  prefix      = "solute",
  outdir      = "./solute",
  tprnfor     = .true.,
  tefield     = .true.,
  dipfield    = .true.
/
&SYSTEM
tot_charge = 0.0
  ibrav       = 0,
  nat         = 144,
  ntyp        = 1,
  ecutwfc     = 70.0,
  ecutrho     = 700.0,
  occupations = "smearing",
  smearing    = "gaussian",
  degauss     = 0.0001,
  emaxpos = 0.8
  eopreg = 0.01
  edir = 3
/
&ELECTRONS
  startingwfc = 'atomic'
  diagonalization = 'cg'
  mixing_mode = 'local-TF'
  electron_maxstep = 1000
/
ATOMIC_SPECIES
  Ag 1.0 Ag.pbe-dn-kjpaw_psl.0.1.UPF
CELL_PARAMETERS {angstrom}
    15.226650000      0.000000000      0.000000000
     0.000000000     17.582220000      0.000000000
     0.000000000     0.000000000    25.000000000
ATOMIC_POSITIONS {angstrom}
Ag     1.690720000     0.000000000     0.000000000
Ag     4.228500000     1.465190000     0.000000000
Ag     1.690766227     0.000002472     7.178149983
Ag     4.228547151     1.465187502     7.178148465
Ag     2.536650000     1.465190000     2.392640000
Ag     5.074420000     0.000000000     2.392640000
Ag     0.845093599     1.465188552     4.782423880
Ag     3.382863955    -0.000000121     4.782450616
Ag     1.690720000     2.930370000     0.000000000
Ag     4.228500000     4.395560000     0.000000000
Ag     1.690767933     2.930371572     7.178194656
Ag     4.228545984     4.395561901     7.178164275
Ag     2.536650000     4.395560000     2.392640000
Ag     5.074420000     2.930370000     2.392640000
Ag     0.845091334     4.395560441     4.782451740
Ag     3.382865338     2.930370205     4.782437513
Ag     1.690720000     5.860740000     0.000000000
Ag     4.228500000     7.325930000     0.000000000
Ag     1.690766227     5.860742472     7.178149983
Ag     4.228547151     7.325927502     7.178148465
Ag     2.536650000     7.325930000     2.392640000
Ag     5.074420000     5.860740000     2.392640000
Ag     0.845093599     7.325928552     4.782423880
Ag     3.382863955     5.860739879     4.782450616
Ag     1.690720000     8.791110000     0.000000000
Ag     4.228500000    10.256300000     0.000000000
Ag     1.690767933     8.791111572     7.178194656
Ag     4.228545984    10.256301901     7.178164275
Ag     2.536650000    10.256300000     2.392640000
Ag     5.074420000     8.791110000     2.392640000
Ag     0.845091334    10.256300441     4.782451740
Ag     3.382865338     8.791110205     4.782437513
Ag     6.766270000     0.000000000     0.000000000
Ag     9.304050000     1.465190000     0.000000000
Ag     6.766316227     0.000002472     7.178149983
Ag     9.304097151     1.465187502     7.178148465
Ag     7.612200000     1.465190000     2.392640000
Ag    10.149970000     0.000000000     2.392640000
Ag     5.920643599     1.465188552     4.782423880
Ag     8.458413955    -0.000000121     4.782450616
Ag     6.766270000     2.930370000     0.000000000
Ag     9.304050000     4.395560000     0.000000000
Ag     6.766317933     2.930371572     7.178194656
Ag     9.304095984     4.395561901     7.178164275
Ag     7.612200000     4.395560000     2.392640000
Ag    10.149970000     2.930370000     2.392640000
Ag     5.920641334     4.395560441     4.782451740
Ag     8.458415338     2.930370205     4.782437513
Ag     6.766270000     5.860740000     0.000000000
Ag     9.304050000     7.325930000     0.000000000
Ag     6.766316227     5.860742472     7.178149983
Ag     9.304097151     7.325927502     7.178148465
Ag     7.612200000     7.325930000     2.392640000
Ag    10.149970000     5.860740000     2.392640000
Ag     5.920643599     7.325928552     4.782423880
Ag     8.458413955     5.860739879     4.782450616
Ag     6.766270000     8.791110000     0.000000000
Ag     9.304050000    10.256300000     0.000000000
Ag     6.766317933     8.791111572     7.178194656
Ag     9.304095984    10.256301901     7.178164275
Ag     7.612200000    10.256300000     2.392640000
Ag    10.149970000     8.791110000     2.392640000
Ag     5.920641334    10.256300441     4.782451740
Ag     8.458415338     8.791110205     4.782437513
Ag    11.841820000     0.000000000     0.000000000
Ag    14.379600000     1.465190000     0.000000000
Ag    11.841866227     0.000002472     7.178149983
Ag    14.379647151     1.465187502     7.178148465
Ag    12.687750000     1.465190000     2.392640000
Ag    15.225520000     0.000000000     2.392640000
Ag    10.996193599     1.465188552     4.782423880
Ag    13.533963955    -0.000000121     4.782450616
Ag    11.841820000     2.930370000     0.000000000
Ag    14.379600000     4.395560000     0.000000000
Ag    11.841867933     2.930371572     7.178194656
Ag    14.379645984     4.395561901     7.178164275
Ag    12.687750000     4.395560000     2.392640000
Ag    15.225520000     2.930370000     2.392640000
Ag    10.996191334     4.395560441     4.782451740
Ag    13.533965338     2.930370205     4.782437513
Ag    11.841820000     5.860740000     0.000000000
Ag    14.379600000     7.325930000     0.000000000
Ag    11.841866227     5.860742472     7.178149983
Ag    14.379647151     7.325927502     7.178148465
Ag    12.687750000     7.325930000     2.392640000
Ag    15.225520000     5.860740000     2.392640000
Ag    10.996193599     7.325928552     4.782423880
Ag    13.533963955     5.860739879     4.782450616
Ag    11.841820000     8.791110000     0.000000000
Ag    14.379600000    10.256300000     0.000000000
Ag    11.841867933     8.791111572     7.178194656
Ag    14.379645984    10.256301901     7.178164275
Ag    12.687750000    10.256300000     2.392640000
Ag    15.225520000     8.791110000     2.392640000
Ag    10.996191334    10.256300441     4.782451740
Ag    13.533965338     8.791110205     4.782437513
Ag     1.690720000    11.721480000     0.000000000
Ag     4.228500000    13.186670000     0.000000000
Ag     1.690766227    11.721482472     7.178149983
Ag     4.228547151    13.186667502     7.178148465
Ag     2.536650000    13.186670000     2.392640000
Ag     5.074420000    11.721480000     2.392640000
Ag     0.845093599    13.186668552     4.782423880
Ag     3.382863955    11.721479879     4.782450616
Ag     1.690720000    14.651850000     0.000000000
Ag     4.228500000    16.117040000     0.000000000
Ag     1.690767933    14.651851572     7.178194656
Ag     4.228545984    16.117041901     7.178164275
Ag     2.536650000    16.117040000     2.392640000
Ag     5.074420000    14.651850000     2.392640000
Ag     0.845091334    16.117040441     4.782451740
Ag     3.382865338    14.651850205     4.782437513
Ag     6.766270000    11.721480000     0.000000000
Ag     9.304050000    13.186670000     0.000000000
Ag     6.766316227    11.721482472     7.178149983
Ag     9.304097151    13.186667502     7.178148465
Ag     7.612200000    13.186670000     2.392640000
Ag    10.149970000    11.721480000     2.392640000
Ag     5.920643599    13.186668552     4.782423880
Ag     8.458413955    11.721479879     4.782450616
Ag     6.766270000    14.651850000     0.000000000
Ag     9.304050000    16.117040000     0.000000000
Ag     6.766317933    14.651851572     7.178194656
Ag     9.304095984    16.117041901     7.178164275
Ag     7.612200000    16.117040000     2.392640000
Ag    10.149970000    14.651850000     2.392640000
Ag     5.920641334    16.117040441     4.782451740
Ag     8.458415338    14.651850205     4.782437513
Ag    11.841820000    11.721480000     0.000000000
Ag    14.379600000    13.186670000     0.000000000
Ag    11.841866227    11.721482472     7.178149983
Ag    14.379647151    13.186667502     7.178148465
Ag    12.687750000    13.186670000     2.392640000
Ag    15.225520000    11.721480000     2.392640000
Ag    10.996193599    13.186668552     4.782423880
Ag    13.533963955    11.721479879     4.782450616
Ag    11.841820000    14.651850000     0.000000000
Ag    14.379600000    16.117040000     0.000000000
Ag    11.841867933    14.651851572     7.178194656
Ag    14.379645984    16.117041901     7.178164275
Ag    12.687750000    16.117040000     2.392640000
Ag    15.225520000    14.651850000     2.392640000
Ag    10.996191334    16.117040441     4.782451740
Ag    13.533965338    14.651850205     4.782437513
K_POINTS automatic
2 2 1 1 1 0