&DOS
  prefix = 'solute'
  outdir = './solute'
  fildos = 'dos_solute.dat'
  Emin   = -5.0
  Emax   =  5.0
  DeltaE =  0.005
  ngauss = 0         ! Gaussian (0) 
  degauss = 0.02     
/

