&CONTROL
  calculation = "nscf",
  pseudo_dir  = "/home/users/son/_hd1/data/pseudo",
  prefix      = "solute",
  outdir      = "./solute",
  tprnfor     = .true.,
  tefield     = .true.,
  dipfield    = .true.
/
&SYSTEM
tot_charge = 0.00
  ibrav       = 0,
  nat         = 16,
  ntyp        = 1,
  ecutwfc     = 70.0,
  ecutrho     = 700.0,
  occupations = "smearing",
  smearing    = "gaussian",
  degauss     = 0.0001,
  emaxpos = 0.8
  eopreg = 0.01
  edir = 3
/
&ELECTRONS
  diagonalization = 'cg' 
  mixing_mode = 'local-TF'
/
ATOMIC_SPECIES
  Ag 1.0 Ag.pbe-dn-kjpaw_psl.0.1.UPF
CELL_PARAMETERS {angstrom}
    5.075550000    -0.000000000    -0.000000000
    0.000000000     5.860740000    -0.000000000
    0.000000000     0.000000000    40.00000000
ATOMIC_POSITIONS {angstrom}
Ag       1.690720000   0.000000000   0.000000000   
Ag       4.228500000   1.465190000   0.000000000   
Ag       1.690766227   0.000002472   7.178149983
Ag       4.228547151   1.465187502   7.178148465
Ag       2.536650000   1.465190000   2.392640000   
Ag       5.074420000   0.000000000   2.392640000   
Ag       0.845093599   1.465188552   4.782423880
Ag       3.382863955  -0.000000121   4.782450616
Ag       1.690720000   2.930370000   0.000000000   
Ag       4.228500000   4.395560000   0.000000000   
Ag       1.690767933   2.930371572   7.178194656
Ag       4.228545984   4.395561901   7.178164275
Ag       2.536650000   4.395560000   2.392640000   
Ag       5.074420000   2.930370000   2.392640000   
Ag       0.845091334   4.395560441   4.782451740
Ag       3.382865338   2.930370205   4.782437513
K_POINTS automatic
13 13 1 0 0 0
